************************************************************************
file with basedata            : cm534_.bas
initial value random generator: 1512934702
************************************************************************
projects                      :  1
jobs (incl. supersource/sink ):  18
horizon                       :  145
RESOURCES
  - renewable                 :  2   R
  - nonrenewable              :  2   N
  - doubly constrained        :  0   D
************************************************************************
PROJECT INFORMATION:
pronr.  #jobs rel.date duedate tardcost  MPM-Time
    1     16      0       14       15       14
************************************************************************
PRECEDENCE RELATIONS:
jobnr.    #modes  #successors   successors
   1        1          3           2   3   4
   2        5          3           7   8   9
   3        5          3           9  13  17
   4        5          3           5   7  10
   5        5          3           6  11  16
   6        5          2          14  17
   7        5          1          15
   8        5          3          11  12  13
   9        5          1          10
  10        5          1          12
  11        5          2          15  17
  12        5          2          14  16
  13        5          2          14  16
  14        5          1          15
  15        5          1          18
  16        5          1          18
  17        5          1          18
  18        1          0        
************************************************************************
REQUESTS/DURATIONS:
jobnr. mode duration  R 1  R 2  N 1  N 2
------------------------------------------------------------------------
  1      1     0       0    0    0    0
  2      1     1       0    6    4    4
         2     2       6    0    3    3
         3     4       4    0    3    2
         4     4       0    4    3    2
         5    10       3    0    2    2
  3      1     1       0    4    8    8
         2     2       0    4    8    6
         3     4       0    4    6    6
         4     8       4    0    4    6
         5     9       1    0    3    5
  4      1     4       7    0    7    6
         2     7       0    6    7    5
         3     8       0    6    6    5
         4     9       0    6    5    4
         5    10       5    0    5    4
  5      1     1       6    0    8    8
         2     1       0    4    8    8
         3     4       7    0    7    7
         4     6       0    3    6    6
         5    10       6    0    5    5
  6      1     1       2    0   10   10
         2     1       0    7    7    8
         3     8       2    0    7    8
         4     8       0    5    5    6
         5    10       0    4    3    5
  7      1     2       5    0    4    6
         2     5       4    0    4    4
         3     6       2    0    3    4
         4     8       2    0    2    4
         5    10       0    4    2    3
  8      1     1       1    0    8    8
         2     7       1    0    7    7
         3     8       0    7    6    4
         4     8       0    7    5    5
         5    10       1    0    4    4
  9      1     4       7    0    6    6
         2     6       0    9    6    4
         3     6       0    9    5    5
         4    10       5    0    5    2
         5    10       4    0    5    4
 10      1     4      10    0    3    7
         2     4       0    2    3    8
         3     7       0    2    3    7
         4     9      10    0    2    6
         5     9       0    2    2    7
 11      1     2       3    0    9    8
         2     5       3    0    9    7
         3     7       3    0    7    7
         4     8       3    0    5    5
         5     8       0    8    5    6
 12      1     1       0    4    7    5
         2     2       0    3    7    4
         3     3       4    0    5    4
         4     3       0    1    3    4
         5     3       8    0    5    3
 13      1     1       0   10    5    3
         2     3       0   10    4    3
         3     3       2    0    4    3
         4     8       0    9    2    2
         5    10       2    0    2    2
 14      1     2       6    0    8    7
         2     5       0    5    7    5
         3     5       5    0    6    6
         4     9       5    0    4    3
         5    10       0    5    3    2
 15      1     2       0    3    9    5
         2     3       1    0    7    5
         3     4       1    0    5    4
         4     4       0    3    6    4
         5     7       0    2    4    4
 16      1     3       0    8    7   10
         2     6       8    0    6    9
         3     7       0    5    5    8
         4     8       6    0    5    6
         5     9       0    3    4    5
 17      1     1       5    0   10    4
         2     2       0    9   10    3
         3     5       4    0   10    3
         4     6       0    8   10    2
         5    10       0    4   10    1
 18      1     0       0    0    0    0
************************************************************************
RESOURCEAVAILABILITIES:
  R 1  R 2  N 1  N 2
    9   13   75   70
************************************************************************
